     Program PWSCF v.7.2 starts on 23Apr2025 at 13:59:24

     Reading input from scf.in
Warning: card &CELL ignored
Warning: card   PRESS_CONV_THR = 0.01 ignored
Warning: card / ignored

     Current dimensions of program PWSCF are:
     Max number of different atomic species (ntypx) = 10
     Max number of k-points (npk) =  40000
     Max angular momentum in pseudopotentials (lmaxx) =  4

     IMPORTANT: XC functional enforced from input :
     Exchange-correlation= HSE
                           (   1   4  12   4   0   0   0)
     EXX-fraction              =        0.25
     Any further DFT definition will be discarded
     Please, verify this is what you really want

     K-points division:     npool     =       8
     R & G space division:  proc/nbgrp/npool/nimage =      16
     Subspace diagonalization in iterative solution of the eigenvalue problem:
     a serial algorithm will be used

     EXX: q-point mesh:     4    4    4
     EXX: setup a grid of 512 q-points centered on each k-point
     (set verbosity='high' to see the list)

     Using Slab Decomposition

     bravais-lattice index     =            2
     lattice parameter (alat)  =      10.6900  a.u.
     unit-cell volume          =     305.4029 (a.u.)^3
     number of atoms/cell      =            2
     number of atomic types    =            1
     number of electrons       =        44.00
     number of Kohn-Sham states=           64
     kinetic-energy cutoff     =     110.0000  Ry
     charge density cutoff     =     440.0000  Ry
     cutoff for Fock operator  =     220.0000  Ry
     scf convergence threshold =      1.0E-11
     mixing beta               =       0.7000
     number of iterations used =            8  plain     mixing
     Exchange-correlation= HSE
                           (   1   4  12   4   0   0   0)
     EXX-fraction              =        0.25
     Non magnetic calculation with spin-orbit

     celldm(1)=  10.690000  celldm(2)=   0.000000  celldm(3)=   0.000000
     celldm(4)=   0.000000  celldm(5)=   0.000000  celldm(6)=   0.000000

     crystal axes: (cart. coord. in units of alat)
               a(1) = (  -0.500000   0.000000   0.500000 )
               a(2) = (   0.000000   0.500000   0.500000 )
               a(3) = (  -0.500000   0.500000   0.000000 )

     reciprocal axes: (cart. coord. in units 2 pi/alat)
               b(1) = ( -1.000000 -1.000000  1.000000 )
               b(2) = (  1.000000  1.000000  1.000000 )
               b(3) = ( -1.000000  1.000000 -1.000000 )

     PseudoPot. # 1 for Ge read from file:
     ../pseudo/Ge_DOJO_LDA_high_nocc_FR.upf
     MD5 check sum: 462b4b3c76abd268428d2e9de3ced6e0
     Pseudo is Norm-conserving, Zval = 22.0
     Generated using ONCVPSP code by D. R. Hamann
     Using radial grid of 1542 points, 10 beta functions with:
                l(1) =   0
                l(2) =   0
                l(3) =   1
                l(4) =   1
                l(5) =   1
                l(6) =   1
                l(7) =   2
                l(8) =   2
                l(9) =   2
               l(10) =   2

     atomic species   valence    mass     pseudopotential
        Ge            22.00    72.64000     Ge( 1.00)

     48 Sym. Ops., with inversion, found (24 have fractional translation)

   Cartesian axes

     site n.     atom                  positions (alat units)
         1           Ge  tau(   1) = (   0.0000000   0.0000000   0.0000000  )
         2           Ge  tau(   2) = (   0.2500000   0.2500000   0.2500000  )

     number of k points=    29
                       cart. coord. in units 2pi/alat
        k(    1) = (   0.0000000   0.0000000   0.0000000), wk =   0.0019531
        k(    2) = (  -0.1250000   0.1250000  -0.1250000), wk =   0.0156250
        k(    3) = (  -0.2500000   0.2500000  -0.2500000), wk =   0.0156250
        k(    4) = (  -0.3750000   0.3750000  -0.3750000), wk =   0.0156250
        k(    5) = (   0.5000000  -0.5000000   0.5000000), wk =   0.0078125
        k(    6) = (   0.0000000   0.2500000   0.0000000), wk =   0.0117188
        k(    7) = (  -0.1250000   0.3750000  -0.1250000), wk =   0.0468750
        k(    8) = (  -0.2500000   0.5000000  -0.2500000), wk =   0.0468750
        k(    9) = (   0.6250000  -0.3750000   0.6250000), wk =   0.0468750
        k(   10) = (   0.5000000  -0.2500000   0.5000000), wk =   0.0468750
        k(   11) = (   0.3750000  -0.1250000   0.3750000), wk =   0.0468750
        k(   12) = (   0.2500000   0.0000000   0.2500000), wk =   0.0234375
        k(   13) = (   0.0000000   0.5000000   0.0000000), wk =   0.0117188
        k(   14) = (  -0.1250000   0.6250000  -0.1250000), wk =   0.0468750
        k(   15) = (   0.7500000  -0.2500000   0.7500000), wk =   0.0468750
        k(   16) = (   0.6250000  -0.1250000   0.6250000), wk =   0.0468750
        k(   17) = (   0.5000000   0.0000000   0.5000000), wk =   0.0234375
        k(   18) = (   0.0000000   0.7500000   0.0000000), wk =   0.0117188
        k(   19) = (   0.8750000  -0.1250000   0.8750000), wk =   0.0468750
        k(   20) = (   0.7500000   0.0000000   0.7500000), wk =   0.0234375
        k(   21) = (   0.0000000  -1.0000000   0.0000000), wk =   0.0058594
        k(   22) = (  -0.2500000   0.5000000   0.0000000), wk =   0.0468750
        k(   23) = (   0.6250000  -0.3750000   0.8750000), wk =   0.0937500
        k(   24) = (   0.5000000  -0.2500000   0.7500000), wk =   0.0468750
        k(   25) = (   0.7500000  -0.2500000   1.0000000), wk =   0.0468750
        k(   26) = (   0.6250000  -0.1250000   0.8750000), wk =   0.0937500
        k(   27) = (   0.5000000   0.0000000   0.7500000), wk =   0.0468750
        k(   28) = (  -0.2500000  -1.0000000   0.0000000), wk =   0.0234375
        k(   29) = (  -0.5000000  -1.0000000   0.0000000), wk =   0.0117188

     Initial potential from superposition of free atoms

     starting charge      43.9986, renormalised to      44.0000
     Starting wfcs are   52 randomized atomic wfcs +   12 random wfcs

     Self-consistent Calculation

     iteration #  1     ecut=   110.00 Ry     beta= 0.70
     Davidson diagonalization with overlap
     ethr =  1.00E-02,  avg # of iterations =  6.6

     Threshold (ethr) on eigenvalues was too large:
     Diagonalizing with lowered threshold

     Davidson diagonalization with overlap
     ethr =  7.71E-05,  avg # of iterations =  4.4

     total energy              =   -1105.22965924 Ry
     estimated scf accuracy    <       0.03485032 Ry

[...]

     End of self-consistent calculation

          k = 0.0000 0.0000 0.0000 (  5961 PWs)   bands (ev):

  -152.5215-152.5215-152.5190-152.5190-103.3566-103.3566-103.3490-103.3490
   -99.0641 -99.0641 -99.0641 -99.0641 -99.0548 -99.0548 -99.0548 -99.0548
   -15.1269 -15.1269 -15.1269 -15.1269 -15.0660 -15.0660 -15.0660 -15.0660
   -14.6177 -14.6177 -14.4817 -14.4817 -14.4817 -14.4817 -14.4423 -14.4423
   -14.4423 -14.4423 -14.3740 -14.3740  -2.3491  -2.3491  10.1627  10.1627
    10.4554  10.4554  10.4554  10.4554  10.5931  10.5931  12.7595  12.7595
    12.9707  12.9707  12.9707  12.9707  16.8247  16.8247  19.7255  19.7255
    19.7255  19.7255  21.1027  21.1027  21.1352  21.1352  21.1352  21.1352

          k =-0.1250 0.1250-0.1250 (  5961 PWs)   bands (ev):

[...]

     highest occupied, lowest unoccupied level (ev):    10.4554   10.5931

!    total energy              =   -1105.23151864 Ry
     estimated scf accuracy    <       0.00000009 Ry

     convergence has been achieved in   5 iterations

     Using ACE for calculation of exact exchange

     EXX: now go back to refine exchange calculation

[...]

     Using ACE for calculation of exact exchange
     ACE projected onto    64 (nbndproj) and applied to    64 (nbnd) bands

     total energy              =   -1105.33781697 Ry
     Harris-Foulkes estimate   =   -1105.33781702 Ry
     est. exchange err (dexx)  =       0.00040882 Ry
     - averaged Fock potential =      41.66990867 Ry
     + Fock energy (ACE)       =     -20.84788181 Ry

     scf convergence threshold =          4.1E-05 Ry

[...]

     total energy              =   -1105.33786940 Ry
     Harris-Foulkes estimate   =   -1105.33786940 Ry
     est. exchange err (dexx)  =          1.9E-10 Ry
     - averaged Fock potential =      41.70045038 Ry
     + Fock energy (ACE)       =     -20.85020641 Ry

     scf convergence threshold =          1.9E-11 Ry

     EXX: now go back to refine exchange calculation

     Self-consistent Calculation

[...]

     Threshold (ethr) on eigenvalues was too large:
     Diagonalizing with lowered threshold

     Davidson diagonalization with overlap
     ethr =  7.12E-14,  avg # of iterations =  2.1

     total energy              =   -1105.33786940 Ry
     estimated scf accuracy    <          3.3E-11 Ry

     iteration #  2     ecut=   110.00 Ry     beta= 0.70
     Davidson diagonalization with overlap
     ethr =  1.00E-13,  avg # of iterations =  2.0

     End of self-consistent calculation

[...]

          k = 0.5000 0.0000 0.7500 (  5940 PWs)   bands (ev):

[...]

          k =-0.5000-1.0000 0.0000 (  5940 PWs)   bands (ev):

  -161.3266-161.3266-161.3266-161.3266-110.2157-110.2157-110.2157-110.2157
  -105.8715-105.8715-105.8668-105.8668-105.8652-105.8652-105.8605-105.8605
   -18.3393 -18.3393 -18.3219 -18.3219 -18.2874 -18.2874 -18.2568 -18.2568
   -17.7572 -17.7572 -17.7158 -17.7158 -17.6829 -17.6829 -17.6708 -17.6708
   -17.5916 -17.5916 -17.5513 -17.5513   0.4428   0.4428   0.4700   0.4700
     5.7342   5.7342   5.8184   5.8184  15.2056  15.2056  15.3491  15.3491
    15.4292  15.4292  15.4457  15.4457  22.1892  22.1892  22.3383  22.3383
    24.1118  24.1118  24.2168  24.2168  27.6178  27.6178  27.6475  27.6475

     highest occupied, lowest unoccupied level (ev):    10.1260   10.9075

!    total energy              =   -1105.33786940 Ry
     estimated scf accuracy    <          3.4E-12 Ry

     convergence has been achieved in   2 iterations

     Using ACE for calculation of exact exchange
     ACE projected onto    64 (nbndproj) and applied to    64 (nbnd) bands

!!   total energy              =   -1105.33786940 Ry
     Harris-Foulkes estimate   =   -1105.33786940 Ry
     est. exchange err (dexx)  =          1.4E-12 Ry
     - averaged Fock potential =      41.70041075 Ry
     + Fock energy (ACE)       =     -20.85020433 Ry

     EXX self-consistency reached

     Writing all to output data dir ./tmp/ge.save/

     General routines

     Parallel routines

     EXX routines

   This run was terminated on:  14:21:37  23Apr2025

   JOB DONE.